p cnf 997 580
144 0
167 0
191 0
217 0
249 0
255 0
288 0
312 0
375 0
461 0
478 0
515 0
564 0
589 0
622 0
656 0
695 0
819 0
828 0
866 0
883 0
911 0
947 0
954 0
-141 0
-142 0
-143 0
-145 0
-146 0
-147 0
-148 0
-149 0
-161 0
-162 0
-163 0
-164 0
-165 0
-166 0
-168 0
-169 0
-192 0
-193 0
-194 0
-195 0
-196 0
-197 0
-198 0
-199 0
-211 0
-212 0
-213 0
-214 0
-215 0
-216 0
-218 0
-219 0
-241 0
-242 0
-243 0
-244 0
-245 0
-246 0
-247 0
-248 0
-251 0
-252 0
-253 0
-254 0
-256 0
-257 0
-258 0
-259 0
-281 0
-282 0
-283 0
-284 0
-285 0
-286 0
-287 0
-289 0
-311 0
-313 0
-314 0
-315 0
-316 0
-317 0
-318 0
-319 0
-371 0
-372 0
-373 0
-374 0
-376 0
-377 0
-378 0
-379 0
-462 0
-463 0
-464 0
-465 0
-466 0
-467 0
-468 0
-469 0
-471 0
-472 0
-473 0
-474 0
-475 0
-476 0
-477 0
-479 0
-511 0
-512 0
-513 0
-514 0
-516 0
-517 0
-518 0
-519 0
-561 0
-562 0
-563 0
-565 0
-566 0
-567 0
-568 0
-569 0
-581 0
-582 0
-583 0
-584 0
-585 0
-586 0
-587 0
-588 0
-621 0
-623 0
-624 0
-625 0
-626 0
-627 0
-628 0
-629 0
-651 0
-652 0
-653 0
-654 0
-655 0
-657 0
-658 0
-659 0
-691 0
-692 0
-693 0
-694 0
-696 0
-697 0
-698 0
-699 0
-811 0
-812 0
-813 0
-814 0
-815 0
-816 0
-817 0
-818 0
-821 0
-822 0
-823 0
-824 0
-825 0
-826 0
-827 0
-829 0
-861 0
-862 0
-863 0
-864 0
-865 0
-867 0
-868 0
-869 0
-881 0
-882 0
-884 0
-885 0
-886 0
-887 0
-888 0
-889 0
-912 0
-913 0
-914 0
-915 0
-916 0
-917 0
-918 0
-919 0
-941 0
-942 0
-943 0
-944 0
-945 0
-946 0
-948 0
-949 0
-951 0
-952 0
-953 0
-955 0
-956 0
-957 0
-958 0
-959 0
-112 0
-122 0
-132 0
-222 0
-232 0
-322 0
-332 0
-117 0
-127 0
-137 0
-227 0
-237 0
-327 0
-337 0
-154 0
-264 0
-344 0
-354 0
-364 0
-155 0
-265 0
-345 0
-355 0
-365 0
-157 0
-267 0
-347 0
-357 0
-367 0
-159 0
-269 0
-349 0
-359 0
-369 0
-171 0
-181 0
-271 0
-291 0
-381 0
-391 0
-175 0
-185 0
-275 0
-295 0
-385 0
-395 0
-178 0
-188 0
-278 0
-298 0
-388 0
-398 0
-412 0
-422 0
-432 0
-522 0
-532 0
-612 0
-632 0
-415 0
-425 0
-435 0
-525 0
-535 0
-615 0
-635 0
-441 0
-451 0
-541 0
-551 0
-641 0
-661 0
-444 0
-454 0
-544 0
-554 0
-644 0
-664 0
-446 0
-456 0
-546 0
-556 0
-646 0
-666 0
-485 0
-495 0
-575 0
-595 0
-675 0
-685 0
-488 0
-498 0
-578 0
-598 0
-678 0
-688 0
-489 0
-499 0
-579 0
-599 0
-679 0
-689 0
-711 0
-721 0
-731 0
-831 0
-921 0
-931 0
-718 0
-728 0
-738 0
-838 0
-928 0
-938 0
-719 0
-729 0
-739 0
-839 0
-929 0
-939 0
-744 0
-754 0
-764 0
-844 0
-854 0
-964 0
-746 0
-756 0
-766 0
-846 0
-856 0
-966 0
-747 0
-757 0
-767 0
-847 0
-857 0
-967 0
-773 0
-783 0
-793 0
-873 0
-893 0
-973 0
-983 0
-993 0
-111 0
-121 0
-131 0
-151 0
-114 0
-124 0
-134 0
-174 0
-184 0
-177 0
-187 0
-225 0
-235 0
-277 0
-297 0
-228 0
-238 0
-268 0
-229 0
-239 0
-279 0
-299 0
-342 0
-352 0
-362 0
-382 0
-392 0
-325 0
-335 0
-411 0
-421 0
-431 0
-481 0
-491 0
-418 0
-428 0
-438 0
-448 0
-458 0
-524 0
-534 0
-574 0
-594 0
-545 0
-555 0
-529 0
-539 0
-549 0
-559 0
-642 0
-662 0
-672 0
-682 0
-645 0
-665 0
-616 0
-636 0
-676 0
-686 0
-833 0
-843 0
-853 0
-836 0
-876 0
-896 0
-848 0
-858 0
-878 0
-898 0
-849 0
-859 0
-879 0
-899 0
-961 0
-971 0
-981 0
-991 0
-924 0
-934 0
-974 0
-984 0
-994 0
-927 0
-937 0
-977 0
-987 0
-997 0
-611 0
-712 0
-115 0
-715 0
-417 0
-617 0
-717 0
-119 0
-419 0
-619 0
-722 0
-922 0
-128 0
-328 0
-528 0
-447 0
-547 0
-647 0
-449 0
-649 0
-749 0
-455 0
-755 0
-855 0
-156 0
-356 0
-261 0
-361 0
-761 0
-266 0
-366 0
-667 0
-775 0
-875 0
-975 0
-778 0
-978 0
-183 0
-383 0
-483 0
-683 0
-788 0
-988 0
-189 0
-389 0
-789 0
-989 0
-591 0
-791 0
-891 0
-795 0
-895 0
-995 0
346 0
445 0
-341 0
-343 0
-348 0
-442 0
-443 0
-326 0
-336 0
-386 0
-396 0
-745 0
-845 0
351 0
835 0
-353 0
-358 0
-832 0
-834 0
-837 0
-725 0
-735 0
-925 0
-935 0
-321 0
-331 0
-135 0
-751 0
-851 0
852 0
125 0
-123 0
-126 0
-129 0
-742 0
-752 0
-762 0
-842 0
-962 0
-872 0
-892 0
-152 0
-452 0
-552 0
841 0
262 0
542 0
-263 0
-543 0
-548 0
-741 0
-272 0
-292 0
-572 0
-592 0
-871 0
784 0
-781 0
-782 0
-785 0
-786 0
-787 0
-774 0
-794 0
-874 0
-894 0
-714 0
-724 0
-734 0
-384 0
-484 0
-684 0
877 0
897 0
771 0
985 0
765 0
681 0